100
128
53
10
59
17
57
22
12
52
13
37
30
31
40
26
25
5
40
17
49
36
57
28
20
15
15
12
49
38
11
14
54
60
27
13
47
63
63
22
61
36
31
26
19
61
19
48
50
29
53
58
18
17
31
1
14
19
44
15
64
36
43
35
49
38
24
32
29
55
32
21
27
43
21
63
36
60
32
52
19
57
24
33
25
57
33
45
64
30
38
32
3
64
64
15
7
2
43
42
43
5